HUN,8,6,967
0,5,2,24,1,3,3,9,5,2,4,21
0,22,1,22,2,21,5,15,3,19,4,14
1,27,2,18,0,22,3,25,5,11,4,17
0,7,1,10,2,27,5,6,3,28,4,30
1,17,2,25,0,29,3,5,5,24,4,30
1,27,2,16,0,26,3,2,4,25,5,27
1,1,0,13,2,20,3,17,4,25,5,8
2,26,0,13,1,24,3,8,5,26,4,13
